&CONTROL
  calculation = 'relax',
  prefix = 'MgZnO',
  outdir = './out',
  pseudo_dir = './',
/
&SYSTEM
  ibrav = 0,
  nat = 16,
  ntyp = 3,
  ecutwfc = 60.0,
  ecutrho = 480.0,
/
&ELECTRONS
  conv_thr = 1.0d-8,
/
&IONS
  ion_dynamics = 'bfgs',
/
ATOMIC_SPECIES
  Mg  24.305  Mg.upf
  Zn  65.38   Zn.upf
  O   15.999  O.upf

CELL_PARAMETERS {angstrom}
  6.498000    0.000000    0.000000
 -3.249001    5.627433    0.000000
  0.000000    0.000000    5.205000
ATOMIC_POSITIONS {crystal}
Mg   0.1666665    0.3333335    0.0000000
Mg   0.1666665    0.8333335    0.0000000
Zn   0.6666665    0.3333335    0.0000000
Zn   0.6666665    0.8333335    0.0000000
Zn   0.3333330    0.1666665    0.5000000
Zn   0.3333330    0.6666665    0.5000000
Zn   0.8333330    0.1666665    0.5000000
Zn   0.8333330    0.6666665    0.5000000
O    0.1666665    0.3333335    0.3819000
O    0.1666665    0.8333335    0.3819000
O    0.6666665    0.3333335    0.3819000
O    0.6666665    0.8333335    0.3819000
O    0.3333330    0.1666665    0.8819000
O    0.3333330    0.6666665    0.8819000
O    0.8333330    0.1666665    0.8819000
O    0.8333330    0.6666665    0.8819000

K_POINTS automatic
  3 3 4  0 0 0
