 vasp           
 1.00000000
 12.620000    0.000000    0.000000
  0.000000   12.620000    0.000000
  0.000000    0.000000   12.620000
C N H Pb Br I
   8    8   48    8    2   22
 Direct
  0.009245    0.060918    0.989087
  0.969245    0.017693    0.448458
  0.001219    0.520847    0.058987
  0.013286    0.475280    0.555928
  0.537195    0.977771    0.045143
  0.446230    0.990740    0.469364
  0.553263    0.531639    0.008808
  0.474949    0.557268    0.502898
  0.991836    0.946208    0.009637
  0.027157    0.984376    0.545513
  0.998924    0.481591    0.947913
  0.988269    0.521828    0.450614
  0.467155    0.019629    0.960138
  0.547480    0.008176    0.527053
  0.452968    0.472062    0.992222
  0.522120    0.449431    0.497441
  0.080883    0.071593    0.941712
  0.018224    0.103035    0.064139
  0.941588    0.093521    0.946112
  0.054846    0.900030    0.972446
  0.992187    0.931472    0.094874
  0.915551    0.921958    0.976846
  0.905179    0.071836    0.469774
  0.935893    0.948266    0.409028
  0.023551    0.057781    0.394318
  0.991794    0.022006    0.614933
  0.022508    0.898435    0.554187
  0.110166    0.007951    0.539477
  0.038016    0.599139    0.061574
  0.046824    0.466326    0.108331
  0.920525    0.526302    0.089744
  0.034584    0.540426    0.895449
  0.043391    0.407613    0.942207
  0.917092    0.467589    0.923619
  0.983079    0.394279    0.560016
  0.976420    0.522580    0.618305
  0.098982    0.474329    0.567865
  0.945663    0.463898    0.402505
  0.939004    0.592199    0.460795
  0.061566    0.543947    0.410354
  0.615020    0.015287    0.040023
  0.546211    0.892189    0.036102
  0.502497    0.994675    0.122587
  0.510266    0.077891    0.912886
  0.441457    0.954793    0.908965
  0.397743    0.057279    0.995450
  0.436466    0.051428    0.408437
  0.379895    0.995094    0.524753
  0.446953    0.912719    0.431955
  0.587899    0.077506    0.494718
  0.531327    0.021172    0.611034
  0.598386    0.938797    0.518236
  0.543531    0.613330    0.981935
  0.617180    0.494352    0.963957
  0.573742    0.531587    0.092878
  0.393527    0.524225    0.957130
  0.467175    0.405247    0.939151
  0.423738    0.442482    0.068073
  0.479202    0.586969    0.584077
  0.392134    0.554250    0.478002
  0.518396    0.610864    0.450676
  0.549752    0.425685    0.575916
  0.462684    0.392967    0.469841
  0.588946    0.449580    0.442515
  0.250000    0.250000    0.250000
  0.250000    0.250000    0.750000
  0.250000    0.750000    0.250000
  0.250000    0.750000    0.750000
  0.750000    0.250000    0.250000
  0.750000    0.250000    0.750000
  0.750000    0.750000    0.250000
  0.750000    0.750000    0.750000
  0.250000    0.250000    0.000000
  0.000000    0.750000    0.250000
  0.250000    0.250000    0.500000
  0.250000    0.750000    0.000000
  0.250000    0.750000    0.500000
  0.750000    0.250000    0.000000
  0.750000    0.250000    0.500000
  0.750000    0.750000    0.000000
  0.750000    0.750000    0.500000
  0.000000    0.250000    0.250000
  0.000000    0.250000    0.750000
  0.000000    0.750000    0.750000
  0.500000    0.250000    0.250000
  0.500000    0.250000    0.750000
  0.500000    0.750000    0.250000
  0.500000    0.750000    0.750000
  0.250000    0.000000    0.250000
  0.250000    0.000000    0.750000
  0.250000    0.500000    0.250000
  0.250000    0.500000    0.750000
  0.750000    0.000000    0.250000
  0.750000    0.000000    0.750000
  0.750000    0.500000    0.250000
  0.750000    0.500000    0.750000
