&CONTROL
  calculation = 'relax'
  prefix = 'NiMgO_64'
  outdir = './out'
  pseudo_dir = '../../pseudo'
/
&SYSTEM
  ibrav = 0
  nat = 64
  ntyp = 3
  ecutwfc = 60.0
  ecutrho = 480.0
/
&ELECTRONS
  conv_thr = 1.0d-8
/
&IONS
  ion_dynamics = 'bfgs'
/

ATOMIC_SPECIES
  Ni  58.6934  Ni.upf
  Mg  24.3050  Mg.upf
  O   15.9994  O.upf

CELL_PARAMETERS {angstrom}
  8.440000    0.000000    0.000000
  0.000000    8.440000    0.000000
  0.000000    0.000000    8.440000
ATOMIC_POSITIONS {crystal}
Ni   0.0000000    0.0000000    0.0000000
Mg   0.0000000    0.0000000    0.5000000
Mg   0.0000000    0.5000000    0.0000000
Mg   0.0000000    0.5000000    0.5000000
Mg   0.5000000    0.0000000    0.0000000
Mg   0.5000000    0.0000000    0.5000000
Mg   0.5000000    0.5000000    0.0000000
Mg   0.5000000    0.5000000    0.5000000
Ni   0.0000000    0.2500000    0.2500000
Mg   0.0000000    0.2500000    0.7500000
Mg   0.0000000    0.7500000    0.2500000
Mg   0.0000000    0.7500000    0.7500000
Mg   0.5000000    0.2500000    0.2500000
Mg   0.5000000    0.2500000    0.7500000
Mg   0.5000000    0.7500000    0.2500000
Mg   0.5000000    0.7500000    0.7500000
Ni   0.2500000    0.0000000    0.2500000
Mg   0.2500000    0.0000000    0.7500000
Mg   0.2500000    0.5000000    0.2500000
Mg   0.2500000    0.5000000    0.7500000
Mg   0.7500000    0.0000000    0.2500000
Mg   0.7500000    0.0000000    0.7500000
Mg   0.7500000    0.5000000    0.2500000
Mg   0.7500000    0.5000000    0.7500000
Mg   0.2500000    0.2500000    0.0000000
Mg   0.2500000    0.2500000    0.5000000
Mg   0.2500000    0.7500000    0.0000000
Mg   0.2500000    0.7500000    0.5000000
Mg   0.7500000    0.2500000    0.0000000
Mg   0.7500000    0.2500000    0.5000000
Mg   0.7500000    0.7500000    0.0000000
Ni   0.7500000    0.7500000    0.5000000
O    0.2500000    0.2500000    0.2500000
O    0.2500000    0.2500000    0.7500000
O    0.2500000    0.7500000    0.2500000
O    0.2500000    0.7500000    0.7500000
O    0.7500000    0.2500000    0.2500000
O    0.7500000    0.2500000    0.7500000
O    0.7500000    0.7500000    0.2500000
O    0.7500000    0.7500000    0.7500000
O    0.2500000    0.0000000    0.0000000
O    0.2500000    0.0000000    0.5000000
O    0.2500000    0.5000000    0.0000000
O    0.2500000    0.5000000    0.5000000
O    0.7500000    0.0000000    0.0000000
O    0.7500000    0.0000000    0.5000000
O    0.7500000    0.5000000    0.0000000
O    0.7500000    0.5000000    0.5000000
O    0.0000000    0.2500000    0.0000000
O    0.0000000    0.2500000    0.5000000
O    0.0000000    0.7500000    0.0000000
O    0.0000000    0.7500000    0.5000000
O    0.5000000    0.2500000    0.0000000
O    0.5000000    0.2500000    0.5000000
O    0.5000000    0.7500000    0.0000000
O    0.5000000    0.7500000    0.5000000
O    0.0000000    0.0000000    0.2500000
O    0.0000000    0.0000000    0.7500000
O    0.0000000    0.5000000    0.2500000
O    0.0000000    0.5000000    0.7500000
O    0.5000000    0.0000000    0.2500000
O    0.5000000    0.0000000    0.7500000
O    0.5000000    0.5000000    0.2500000
O    0.5000000    0.5000000    0.7500000

K_POINTS automatic
  4 4 4  0 0 0
