%BLOCK lattice_cart
  8.440000    0.000000    0.000000
  0.000000    8.440000    0.000000
  0.000000    0.000000    8.440000
%ENDBLOCK lattice_cart
%BLOCK positions_frac
Ni   0.0000000    0.0000000    0.0000000
Ni   0.0000000    0.0000000    0.5000000
Ni   0.0000000    0.5000000    0.0000000
Mg   0.0000000    0.5000000    0.5000000
Mg   0.5000000    0.0000000    0.0000000
Mg   0.5000000    0.0000000    0.5000000
Mg   0.5000000    0.5000000    0.0000000
Mg   0.5000000    0.5000000    0.5000000
Ni   0.0000000    0.2500000    0.2500000
Mg   0.0000000    0.2500000    0.7500000
Mg   0.0000000    0.7500000    0.2500000
Mg   0.0000000    0.7500000    0.7500000
Mg   0.5000000    0.2500000    0.2500000
Mg   0.5000000    0.2500000    0.7500000
Mg   0.5000000    0.7500000    0.2500000
Mg   0.5000000    0.7500000    0.7500000
Mg   0.2500000    0.0000000    0.2500000
Mg   0.2500000    0.0000000    0.7500000
Mg   0.2500000    0.5000000    0.2500000
Mg   0.2500000    0.5000000    0.7500000
Mg   0.7500000    0.0000000    0.2500000
Mg   0.7500000    0.0000000    0.7500000
Mg   0.7500000    0.5000000    0.2500000
Mg   0.7500000    0.5000000    0.7500000
Mg   0.2500000    0.2500000    0.0000000
Mg   0.2500000    0.2500000    0.5000000
Mg   0.2500000    0.7500000    0.0000000
Mg   0.2500000    0.7500000    0.5000000
Mg   0.7500000    0.2500000    0.0000000
Mg   0.7500000    0.2500000    0.5000000
Mg   0.7500000    0.7500000    0.0000000
Mg   0.7500000    0.7500000    0.5000000
O    0.2500000    0.2500000    0.2500000
O    0.2500000    0.2500000    0.7500000
O    0.2500000    0.7500000    0.2500000
O    0.2500000    0.7500000    0.7500000
O    0.7500000    0.2500000    0.2500000
O    0.7500000    0.2500000    0.7500000
O    0.7500000    0.7500000    0.2500000
O    0.7500000    0.7500000    0.7500000
O    0.2500000    0.0000000    0.0000000
O    0.2500000    0.0000000    0.5000000
O    0.2500000    0.5000000    0.0000000
O    0.2500000    0.5000000    0.5000000
O    0.7500000    0.0000000    0.0000000
O    0.7500000    0.0000000    0.5000000
O    0.7500000    0.5000000    0.0000000
O    0.7500000    0.5000000    0.5000000
O    0.0000000    0.2500000    0.0000000
O    0.0000000    0.2500000    0.5000000
O    0.0000000    0.7500000    0.0000000
O    0.0000000    0.7500000    0.5000000
O    0.5000000    0.2500000    0.0000000
O    0.5000000    0.2500000    0.5000000
O    0.5000000    0.7500000    0.0000000
O    0.5000000    0.7500000    0.5000000
O    0.0000000    0.0000000    0.2500000
O    0.0000000    0.0000000    0.7500000
O    0.0000000    0.5000000    0.2500000
O    0.0000000    0.5000000    0.7500000
O    0.5000000    0.0000000    0.2500000
O    0.5000000    0.0000000    0.7500000
O    0.5000000    0.5000000    0.2500000
O    0.5000000    0.5000000    0.7500000
%ENDBLOCK positions_frac

%BLOCK kpoints_mp_grid
4 4 4
%ENDBLOCK kpoints_mp_grid

%BLOCK species_pot
Ni Ni_00.recpsp
Mg Mg_00.recpsp
O  O_00.recpsp
%ENDBLOCK species_pot
