#
# Keywords:
#
opti conp
#
# Options:
#
title
 La_{0.75}Sr_{0.25}Fe_{0.5}Al_{0.25}Mn_{0.25}O_3 perovskite
end

cell
    7.6000      7.6000      7.6000     90.0000     90.0000     90.0000
frac
 Sr  core    0.0000000    0.0000000    0.0000000
 Sr  core    0.0000000    0.0000000    0.5000000
 La  core    0.0000000    0.5000000    0.0000000
 La  core    0.0000000    0.5000000    0.5000000
 La  core    0.5000000    0.0000000    0.0000000
 La  core    0.5000000    0.0000000    0.5000000
 La  core    0.5000000    0.5000000    0.0000000
 La  core    0.5000000    0.5000000    0.5000000
 Mn  core    0.2500000    0.2500000    0.2500000
 Fe  core    0.2500000    0.2500000    0.7500000
 Fe  core    0.2500000    0.7500000    0.2500000
 Fe  core    0.2500000    0.7500000    0.7500000
 Fe  core    0.7500000    0.2500000    0.2500000
 Fe  core    0.7500000    0.2500000    0.7500000
 Mn  core    0.7500000    0.7500000    0.2500000
 Fe  core    0.7500000    0.7500000    0.7500000
  O  core    0.2500000    0.2500000    0.0000000
  O  core    0.2500000    0.2500000    0.5000000
  O  core    0.2500000    0.7500000    0.0000000
  O  core    0.2500000    0.7500000    0.5000000
  O  core    0.7500000    0.2500000    0.0000000
  O  core    0.7500000    0.2500000    0.5000000
  O  core    0.7500000    0.7500000    0.0000000
  O  core    0.7500000    0.7500000    0.5000000
  O  core    0.0000000    0.2500000    0.2500000
  O  core    0.0000000    0.2500000    0.7500000
  O  core    0.0000000    0.7500000    0.2500000
  O  core    0.0000000    0.7500000    0.7500000
  O  core    0.5000000    0.2500000    0.2500000
  O  core    0.5000000    0.2500000    0.7500000
  O  core    0.5000000    0.7500000    0.2500000
  O  core    0.5000000    0.7500000    0.7500000
  O  core    0.2500000    0.0000000    0.2500000
  O  core    0.2500000    0.0000000    0.7500000
  O  core    0.2500000    0.5000000    0.2500000
  O  core    0.2500000    0.5000000    0.7500000
  O  core    0.7500000    0.0000000    0.2500000
  O  core    0.7500000    0.0000000    0.7500000
  O  core    0.7500000    0.5000000    0.2500000
  O  core    0.7500000    0.5000000    0.7500000

library woodley.lib

gmax 0.01
