 vasp           
 1.00000000
 12.620000    0.000000    0.000000
  0.000000   12.620000    0.000000
  0.000000    0.000000   12.620000
C N H Pb Br I
   8    8   48    8    2   22
 Direct
  0.041687    0.018202    0.042970
  0.019486    0.028396    0.552245
  0.054486    0.480376    0.023700
  0.026231    0.548971    0.471202
  0.501633    0.039319    0.951349
  0.484524    0.989718    0.559752
  0.479067    0.546372    0.963572
  0.519437    0.440764    0.494634
  0.963189    0.983928    0.962056
  0.982793    0.974926    0.453867
  0.951887    0.517329    0.979073
  0.976838    0.456757    0.525429
  0.498558    0.965281    0.042960
  0.513666    0.009080    0.447237
  0.518484    0.459053    0.032167
  0.482837    0.552307    0.504739
  0.101365    0.956464    0.053804
  0.001635    0.032597    0.118308
  0.080500    0.091059    0.017033
  0.983961    0.905203    0.932788
  0.884231    0.981336    0.997292
  0.963096    0.039798    0.896017
  0.101191    0.005471    0.569250
  0.969041    0.005286    0.618641
  0.015544    0.114235    0.542081
  0.046311    0.925501    0.422113
  0.914161    0.925315    0.471504
  0.960664    0.034264    0.394944
  0.041782    0.447157    0.102601
  0.109559    0.546877    0.029351
  0.088498    0.419584    0.972369
  0.888332    0.502425    0.035856
  0.956109    0.602144    0.962606
  0.935048    0.474852    0.905623
  0.075333    0.592992    0.527251
  0.964549    0.601191    0.440286
  0.075581    0.521380    0.405700
  0.001459    0.455074    0.608355
  0.890676    0.463273    0.521390
  0.001707    0.383462    0.486803
  0.439357    0.098829    0.959747
  0.489290    0.995393    0.877827
  0.578542    0.078852    0.948274
  0.434757    0.988095    0.096762
  0.484691    0.884659    0.014843
  0.573942    0.968119    0.085289
  0.531546    0.924259    0.591287
  0.400537    0.969614    0.565160
  0.499795    0.060866    0.606571
  0.575131    0.953217    0.423007
  0.444122    0.998573    0.396880
  0.543380    0.089824    0.438291
  0.398036    0.529422    0.938334
  0.529646    0.553817    0.893760
  0.480176    0.620880    0.007555
  0.456989    0.398825    0.040927
  0.588599    0.423221    0.996353
  0.539129    0.490283    0.110148
  0.564010    0.418102    0.565274
  0.570351    0.432881    0.425115
  0.451195    0.388269    0.485989
  0.509270    0.584930    0.580388
  0.515612    0.599709    0.440229
  0.396456    0.555097    0.501103
  0.250000    0.250000    0.250000
  0.250000    0.250000    0.750000
  0.250000    0.750000    0.250000
  0.250000    0.750000    0.750000
  0.750000    0.250000    0.250000
  0.750000    0.250000    0.750000
  0.750000    0.750000    0.250000
  0.750000    0.750000    0.750000
  0.250000    0.250000    0.000000
  0.250000    0.250000    0.500000
  0.250000    0.750000    0.000000
  0.250000    0.750000    0.500000
  0.750000    0.250000    0.000000
  0.750000    0.250000    0.500000
  0.750000    0.750000    0.000000
  0.750000    0.750000    0.500000
  0.000000    0.250000    0.250000
  0.000000    0.250000    0.750000
  0.000000    0.750000    0.250000
  0.000000    0.750000    0.750000
  0.500000    0.250000    0.250000
  0.500000    0.250000    0.750000
  0.500000    0.750000    0.250000
  0.500000    0.750000    0.750000
  0.250000    0.000000    0.250000
  0.250000    0.000000    0.750000
  0.250000    0.500000    0.250000
  0.250000    0.500000    0.750000
  0.750000    0.000000    0.250000
  0.750000    0.000000    0.750000
  0.750000    0.500000    0.250000
  0.750000    0.500000    0.750000
