 vasp           
 1.00000000
 12.620000    0.000000    0.000000
  0.000000   12.620000    0.000000
  0.000000    0.000000   12.620000
C N H Pb Br I
   8    8   48    8    2   22
 Direct
  0.025275    0.049775    0.971731
  0.010712    0.052073    0.466997
  0.058900    0.485144    0.015020
  0.983473    0.508522    0.440252
  0.480455    0.953455    0.036974
  0.550226    0.010996    0.464335
  0.486420    0.559830    0.012307
  0.451694    0.538743    0.490999
  0.977681    0.956047    0.024962
  0.990541    0.954018    0.529142
  0.947990    0.513118    0.986737
  0.014594    0.492475    0.552759
  0.517259    0.041100    0.967351
  0.455649    0.990290    0.531493
  0.511991    0.447168    0.989133
  0.542656    0.465789    0.507948
  0.017961    0.119257    0.022811
  0.984295    0.064924    0.897042
  0.109001    0.034920    0.955712
  0.946778    0.979075    0.102425
  0.913112    0.924742    0.976657
  0.037818    0.894738    0.035326
  0.936765    0.095819    0.456582
  0.042722    0.031389    0.389313
  0.067665    0.102007    0.508832
  0.906597    0.949166    0.549528
  0.012554    0.884736    0.482259
  0.037497    0.955354    0.601779
  0.103470    0.557071    0.033194
  0.096582    0.444316    0.948684
  0.059216    0.433219    0.084237
  0.937589    0.598910    0.990893
  0.930701    0.486155    0.906383
  0.893335    0.475058    0.041936
  0.911904    0.463042    0.422940
  0.047311    0.482030    0.388193
  0.968037    0.592439    0.425869
  0.958448    0.439042    0.591207
  0.093856    0.458030    0.556461
  0.014581    0.568439    0.594136
  0.548103    0.905636    0.062021
  0.424598    0.903361    0.993871
  0.441265    0.986121    0.106862
  0.603148    0.036720    0.957890
  0.479643    0.034446    0.889740
  0.496310    0.117205    0.002731
  0.604124    0.943385    0.468092
  0.591272    0.081715    0.492643
  0.525690    0.023303    0.382276
  0.462672    0.912416    0.568534
  0.449820    0.050746    0.593086
  0.384238    0.992335    0.482718
  0.490449    0.606318    0.939416
  0.543141    0.591531    0.069447
  0.406634    0.565513    0.045308
  0.528694    0.437817    0.904757
  0.581386    0.423031    0.034788
  0.444879    0.397012    0.010649
  0.446397    0.594662    0.556842
  0.378225    0.493273    0.486302
  0.462742    0.582605    0.417233
  0.582443    0.485550    0.582193
  0.514270    0.384161    0.511653
  0.598787    0.473493    0.442584
  0.250000    0.250000    0.250000
  0.250000    0.250000    0.750000
  0.250000    0.750000    0.250000
  0.250000    0.750000    0.750000
  0.750000    0.250000    0.250000
  0.750000    0.250000    0.750000
  0.750000    0.750000    0.250000
  0.750000    0.750000    0.750000
  0.250000    0.250000    0.000000
  0.750000    0.750000    0.000000
  0.250000    0.250000    0.500000
  0.250000    0.750000    0.000000
  0.250000    0.750000    0.500000
  0.750000    0.250000    0.000000
  0.750000    0.250000    0.500000
  0.750000    0.750000    0.500000
  0.000000    0.250000    0.250000
  0.000000    0.250000    0.750000
  0.000000    0.750000    0.250000
  0.000000    0.750000    0.750000
  0.500000    0.250000    0.250000
  0.500000    0.250000    0.750000
  0.500000    0.750000    0.250000
  0.500000    0.750000    0.750000
  0.250000    0.000000    0.250000
  0.250000    0.000000    0.750000
  0.250000    0.500000    0.250000
  0.250000    0.500000    0.750000
  0.750000    0.000000    0.250000
  0.750000    0.000000    0.750000
  0.750000    0.500000    0.250000
  0.750000    0.500000    0.750000
