 vasp           
 1.00000000
  9.002000    0.000000    0.000000
  0.000000    9.002000    0.000000
  0.000000    0.000000    6.020000
Li Mg H
   1   15   31
 Direct
  0.000000    0.000000    0.000000
  0.000000    0.000000    0.500000
  0.000000    0.500000    0.000000
  0.000000    0.500000    0.500000
  0.500000    0.000000    0.000000
  0.500000    0.000000    0.500000
  0.500000    0.500000    0.000000
  0.500000    0.500000    0.500000
  0.250000    0.250000    0.250000
  0.250000    0.250000    0.750000
  0.250000    0.750000    0.250000
  0.250000    0.750000    0.750000
  0.750000    0.250000    0.250000
  0.750000    0.250000    0.750000
  0.750000    0.750000    0.250000
  0.750000    0.750000    0.750000
  0.152150    0.152150    0.500000
  0.152150    0.652150    0.000000
  0.152150    0.652150    0.500000
  0.652150    0.152150    0.000000
  0.652150    0.152150    0.500000
  0.652150    0.652150    0.000000
  0.652150    0.652150    0.500000
  0.347850    0.347850    0.000000
  0.347850    0.347850    0.500000
  0.347850    0.847850    0.000000
  0.347850    0.847850    0.500000
  0.847850    0.347850    0.000000
  0.847850    0.347850    0.500000
  0.847850    0.847850    0.000000
  0.847850    0.847850    0.500000
  0.097850    0.402150    0.250000
  0.097850    0.402150    0.750000
  0.097850    0.902150    0.250000
  0.097850    0.902150    0.750000
  0.597850    0.402150    0.250000
  0.597850    0.402150    0.750000
  0.597850    0.902150    0.250000
  0.597850    0.902150    0.750000
  0.402150    0.097850    0.250000
  0.402150    0.097850    0.750000
  0.402150    0.597850    0.250000
  0.402150    0.597850    0.750000
  0.902150    0.097850    0.250000
  0.902150    0.097850    0.750000
  0.902150    0.597850    0.250000
  0.902150    0.597850    0.750000
