 vasp           
 1.00000000
 25.240000    0.000000    0.000000
  0.000000   25.240000    0.000000
  0.000000    0.000000   25.240000
C N H Pb Br I
  64   64  384   64   96   96
 Direct
  0.000717    0.985577    0.027755
  0.978043    0.013992    0.267349
  0.986974    0.009324    0.526875
  0.979127    0.985654    0.731631
  0.985719    0.228390    0.017549
  0.983759    0.230598    0.268403
  0.001464    0.251464    0.531218
  0.974951    0.237892    0.735689
  0.974253    0.489198    0.014117
  0.016920    0.521546    0.234889
  0.000805    0.471564    0.513024
  0.004053    0.489309    0.720877
  0.015195    0.775966    0.008590
  0.011238    0.772786    0.231741
  0.980985    0.739012    0.477716
  0.998823    0.759390    0.779822
  0.268308    0.021487    0.986508
  0.229248    0.976903    0.246157
  0.236397    0.974823    0.487352
  0.222037    0.012696    0.744020
  0.264305    0.222988    0.993321
  0.225938    0.258633    0.268038
  0.255346    0.279529    0.508852
  0.234525    0.242446    0.776122
  0.254509    0.470630    0.990206
  0.278633    0.487838    0.253330
  0.244462    0.494288    0.530259
  0.269512    0.475630    0.747939
  0.265273    0.776495    0.006606
  0.242955    0.780407    0.252163
  0.225261    0.744272    0.481723
  0.222394    0.762602    0.757613
  0.489777    0.973743    0.013599
  0.498898    0.002748    0.281147
  0.520015    0.017939    0.483984
  0.487161    0.010371    0.723420
  0.471203    0.241989    0.009243
  0.502952    0.249948    0.281147
  0.475341    0.240185    0.516567
  0.509369    0.259174    0.778407
  0.483140    0.474683    0.007325
  0.507614    0.525579    0.233671
  0.510229    0.482316    0.523696
  0.520616    0.482489    0.765724
  0.496068    0.754226    0.030750
  0.473969    0.741111    0.235092
  0.474059    0.742889    0.484020
  0.475524    0.738314    0.734404
  0.771060    0.019081    0.986913
  0.736653    0.027327    0.257349
  0.747677    0.977497    0.521612
  0.745463    0.987286    0.778225
  0.765237    0.273633    0.986282
  0.753216    0.231059    0.225306
  0.760180    0.232659    0.523969
  0.753107    0.232910    0.776023
  0.776134    0.509188    0.985457
  0.722035    0.513860    0.252180
  0.742981    0.498211    0.530437
  0.732001    0.486665    0.728158
  0.730097    0.769230    0.014593
  0.751028    0.757710    0.219695
  0.748929    0.780891    0.504844
  0.762889    0.775813    0.762101
  0.999367    0.012736    0.975492
  0.019389    0.987644    0.234680
  0.011502    0.991767    0.476269
  0.018431    0.012668    0.766220
  0.012610    0.269082    0.984504
  0.014341    0.267132    0.233749
  0.998707    0.248707    0.472433
  0.022119    0.260692    0.762637
  0.022735    0.509538    0.987534
  0.985059    0.480974    0.263343
  0.999289    0.525110    0.488500
  0.996421    0.509440    0.775717
  0.986583    0.727072    0.992415
  0.990076    0.729880    0.266123
  0.016790    0.759703    0.519678
  0.001039    0.741708    0.723667
  0.233834    0.981027    0.011914
  0.268325    0.020395    0.253394
  0.262012    0.022232    0.511169
  0.274692    0.988789    0.755280
  0.237369    0.273852    0.005898
  0.271248    0.242377    0.234072
  0.245279    0.223925    0.492184
  0.263665    0.256670    0.726934
  0.246018    0.525935    0.008649
  0.224716    0.510740    0.247059
  0.254890    0.505043    0.473281
  0.232770    0.521520    0.751820
  0.236514    0.726604    0.994166
  0.256221    0.723150    0.248090
  0.271845    0.755058    0.516139
  0.274377    0.738872    0.743277
  0.509027    0.023186    0.987992
  0.500973    0.997574    0.222497
  0.482327    0.984160    0.514142
  0.511337    0.990842    0.773471
  0.525429    0.257074    0.991839
  0.497393    0.250046    0.222496
  0.521775    0.258667    0.485371
  0.491727    0.241899    0.724916
  0.514888    0.522356    0.993532
  0.493277    0.477413    0.264419
  0.490968    0.515616    0.479075
  0.481796    0.515463    0.736116
  0.503472    0.746268    0.972847
  0.522986    0.757850    0.263164
  0.522907    0.756279    0.514111
  0.521613    0.760319    0.763772
  0.731403    0.983151    0.011556
  0.761785    0.975870    0.243511
  0.752051    0.019871    0.480916
  0.754006    0.011227    0.725077
  0.736545    0.229131    0.012114
  0.747160    0.266725    0.271805
  0.741011    0.265313    0.478834
  0.747256    0.265090    0.727021
  0.726923    0.491887    0.012842
  0.774694    0.487761    0.248075
  0.756198    0.501579    0.473123
  0.765894    0.511775    0.769287
  0.767575    0.733019    0.987114
  0.749092    0.743192    0.276760
  0.750945    0.722722    0.495723
  0.738618    0.727207    0.739314
  0.976853    0.949516    0.026113
  0.984802    0.011794    0.058270
  0.041503    0.975202    0.037789
  0.974832    0.990137    0.947946
  0.982782    0.052414    0.980104
  0.039483    0.015822    0.959623
  0.978062    0.056534    0.259426
  0.986134    0.007334    0.309325
  0.939153    0.997724    0.257615
  0.039899    0.017127    0.210566
  0.047972    0.967926    0.260465
  0.000991    0.958317    0.208755
  0.993650    0.051717    0.532423
  0.004601    0.987697    0.559941
  0.944410    0.001627    0.525935
  0.030336    0.025459    0.456735
  0.041287    0.961438    0.484253
  0.981095    0.975368    0.450246
  0.999261    0.968007    0.697634
  0.949904    0.014291    0.717570
  0.958958    0.954552    0.753940
  0.058045    0.008411    0.749366
  0.008688    0.054695    0.769302
  0.017741    0.994955    0.805672
  0.005131    0.225728    0.056132
  0.987784    0.189901    0.997897
  0.944225    0.239247    0.023216
  0.045349    0.286589    0.006710
  0.028002    0.250762    0.948475
  0.984443    0.300108    0.973794
  0.943871    0.246220    0.274525
  0.003561    0.226751    0.306677
  0.981078    0.191627    0.249807
  0.989610    0.300861    0.222695
  0.049301    0.281392    0.254847
  0.026818    0.246268    0.197977
  0.967144    0.231491    0.548417
  0.001700    0.292821    0.543920
  0.037602    0.232132    0.545082
  0.963020    0.227368    0.460496
  0.997576    0.288699    0.455999
  0.033477    0.228009    0.457161
  0.987195    0.217532    0.699521
  0.947215    0.269503    0.725527
  0.955327    0.209666    0.761958
  0.057742    0.251633    0.739825
  0.017762    0.303604    0.765831
  0.025873    0.243767    0.802262
  0.981029    0.486443    0.056768
  0.964490    0.449971    0.998699
  0.941147    0.516039    0.006675
  0.053541    0.516864    0.017010
  0.037002    0.480392    0.958940
  0.013658    0.546459    0.966917
  0.054313    0.504187    0.221737
  0.025184    0.554806    0.261296
  0.994983    0.535851    0.200451
  0.006661    0.443505    0.264294
  0.977531    0.494125    0.303853
  0.947330    0.475170    0.243009
  0.963694    0.464018    0.533962
  0.033681    0.469246    0.541052
  0.006168    0.441565    0.482313
  0.961427    0.544103    0.497284
  0.031414    0.549331    0.504374
  0.003901    0.521650    0.445635
  0.996484    0.521057    0.692463
  0.976686    0.456656    0.713350
  0.044669    0.475227    0.715992
  0.985070    0.551166    0.774483
  0.965273    0.486765    0.795370
  0.033255    0.505336    0.798012
  0.023451    0.774703    0.051050
  0.990909    0.810686    0.999845
  0.052524    0.778906    0.986918
  0.980658    0.701576    0.026857
  0.948116    0.737559    0.975652
  0.009731    0.705779    0.962726
  0.015863    0.758156    0.191279
  0.049707    0.785825    0.246640
  0.983900    0.806318    0.231709
  0.984212    0.693984    0.242702
  0.018056    0.721653    0.298062
  0.952249    0.742146    0.283131
  0.949653    0.767775    0.469742
  0.963163    0.701804    0.490744
  0.003485    0.732054    0.441423
  0.003204    0.798721    0.532501
  0.016714    0.732750    0.553503
  0.057036    0.763000    0.504182
  0.024638    0.734480    0.804022
  0.958247    0.756336    0.794520
  0.011935    0.800518    0.782727
  0.027953    0.708035    0.720035
  0.961561    0.729890    0.710534
  0.015249    0.774072    0.698740
  0.250893    0.060779    0.991550
  0.272181    0.012953    0.944271
  0.307514    0.020848    0.004791
  0.199332    0.000266    0.029547
  0.220620    0.952440    0.982268
  0.255954    0.960335    0.042788
  0.220900    0.971609    0.204028
  0.192514    0.986666    0.266823
  0.245239    0.940057    0.262233
  0.279344    0.036657    0.214851
  0.250958    0.051714    0.277646
  0.303683    0.005104    0.273056
  0.211569    0.986824    0.454003
  0.211843    0.955040    0.516975
  0.266710    0.947313    0.473347
  0.249880    0.057729    0.489624
  0.250153    0.025945    0.552596
  0.305020    0.018218    0.508969
  0.190981    0.983178    0.750087
  0.220718    0.026520    0.703045
  0.215212    0.046187    0.770546
  0.269734    0.947423    0.766928
  0.299471    0.990765    0.719886
  0.293965    0.010431    0.787387
  0.286805    0.227054    0.956581
  0.234868    0.191638    0.988582
  0.291294    0.212406    0.025437
  0.246519    0.303128    0.975392
  0.194582    0.267712    0.007392
  0.251007    0.288480    0.044247
  0.235188    0.295966    0.287868
  0.218344    0.228196    0.297833
  0.190550    0.263838    0.243698
  0.302955    0.271654    0.237068
  0.286111    0.203884    0.247033
  0.258317    0.239525    0.192898
  0.281054    0.299012    0.480005
  0.274582    0.279920    0.547603
  0.217897    0.301049    0.511355
  0.265998    0.215850    0.455076
  0.259526    0.196758    0.522674
  0.202841    0.217886    0.486426
  0.240734    0.272987    0.806143
  0.248925    0.204537    0.791201
  0.192222    0.239224    0.767640
  0.284317    0.294262    0.732576
  0.292508    0.225812    0.717634
  0.235805    0.260499    0.694073
  0.296920    0.462445    0.987573
  0.236543    0.465302    0.951210
  0.236386    0.442970    0.018104
  0.284220    0.545161    0.015157
  0.223843    0.548018    0.978794
  0.223687    0.525686    0.045688
  0.305919    0.518325    0.267423
  0.292612    0.472720    0.215279
  0.277507    0.455418    0.281957
  0.225279    0.552578    0.258043
  0.211972    0.506973    0.205900
  0.196867    0.489671    0.272578
  0.220552    0.526222    0.547027
  0.281923    0.491769    0.551756
  0.223147    0.456868    0.534411
  0.236149    0.542307    0.461809
  0.297520    0.507854    0.466538
  0.238744    0.472954    0.449193
  0.297367    0.476362    0.781047
  0.291546    0.477647    0.710760
  0.246976    0.438717    0.749119
  0.242415    0.544997    0.786852
  0.236594    0.546281    0.716565
  0.192024    0.507352    0.754924
  0.276965    0.796176    0.969884
  0.300653    0.767568    0.029853
  0.239611    0.802882    0.029344
  0.233952    0.721558    0.951278
  0.257639    0.692950    0.011247
  0.196598    0.728265    0.010738
  0.256770    0.795951    0.290112
  0.200110    0.785722    0.249358
  0.262110    0.802172    0.220050
  0.276610    0.710316    0.284021
  0.219951    0.700088    0.243267
  0.281951    0.716537    0.213960
  0.236390    0.716716    0.450268
  0.211306    0.781196    0.464013
  0.193406    0.726873    0.505268
  0.306064    0.732849    0.501741
  0.280979    0.797329    0.515486
  0.263079    0.743005    0.556741
  0.223080    0.805150    0.749753
  0.214406    0.756022    0.799622
  0.190996    0.744301    0.734138
  0.300828    0.769658    0.728311
  0.292154    0.720530    0.778180
  0.268744    0.708809    0.712697
  0.446623    0.974711    0.016664
  0.506780    0.970227    0.053227
  0.501597    0.939483    0.989970
  0.475414    0.048660    0.978365
  0.535571    0.044175    0.014928
  0.530388    0.013431    0.951671
  0.519154    0.969205    0.299508
  0.457692    0.003428    0.294315
  0.518304    0.039463    0.293279
  0.522257    0.961466    0.211789
  0.460795    0.995689    0.206596
  0.521407    0.031724    0.205561
  0.498063    0.045499    0.458862
  0.545275    0.993089    0.459160
  0.544762    0.040374    0.511480
  0.441696    0.994978    0.503967
  0.488908    0.942569    0.504265
  0.488395    0.989853    0.556585
  0.489133    0.979462    0.693199
  0.508584    0.045281    0.709485
  0.445770    0.020909    0.730316
  0.525290    0.950254    0.768056
  0.544741    0.016073    0.784343
  0.481928    0.991700    0.805173
  0.462118    0.201911    0.995686
  0.442306    0.269539    0.992577
  0.468817    0.243286    0.052422
  0.543219    0.224473    0.969656
  0.523407    0.292101    0.966547
  0.549918    0.265848    0.026392
  0.541513    0.266178    0.292204
  0.499746    0.209465    0.296069
  0.471737    0.274129    0.298832
  0.533198    0.266324    0.204484
  0.491431    0.209611    0.208349
  0.463422    0.274274    0.211111
  0.463616    0.200691    0.503326
  0.442218    0.267463    0.511036
  0.485622    0.238641    0.558564
  0.533063    0.228334    0.456667
  0.511665    0.295106    0.464378
  0.555069    0.266284    0.511906
  0.506730    0.302258    0.781465
  0.550345    0.246929    0.784949
  0.484165    0.241194    0.808628
  0.480344    0.276422    0.701463
  0.523960    0.221093    0.704946
  0.457779    0.215358    0.728625
  0.459530    0.482579    0.042720
  0.509525    0.441261    0.014985
  0.456730    0.464717    0.974537
  0.507013    0.553880    0.022091
  0.557008    0.512563    0.994356
  0.504213    0.536019    0.953908
  0.484622    0.559374    0.247877
  0.499122    0.519214    0.191728
  0.549772    0.534005    0.238517
  0.463178    0.487336    0.293865
  0.477678    0.447176    0.237716
  0.528329    0.461968    0.284505
  0.488516    0.444892    0.524443
  0.504081    0.503082    0.561150
  0.552429    0.474184    0.518714
  0.459708    0.494696    0.457707
  0.475273    0.552886    0.494414
  0.523622    0.523988    0.451978
  0.499657    0.455838    0.792613
  0.546979    0.507999    0.788659
  0.544111    0.459082    0.737940
  0.441597    0.505155    0.748331
  0.488919    0.557316    0.744376
  0.486051    0.508399    0.693658
  0.487437    0.795859    0.038800
  0.532112    0.742841    0.051798
  0.463145    0.729903    0.044758
  0.498509    0.783957    0.952198
  0.543185    0.730939    0.965197
  0.474217    0.718001    0.958156
  0.439342    0.757989    0.254808
  0.470923    0.697955    0.235461
  0.475150    0.754926    0.194110
  0.512654    0.783025    0.296793
  0.544235    0.722990    0.277446
  0.548461    0.779961    0.236095
  0.439204    0.751167    0.508294
  0.474419    0.700929    0.473483
  0.472187    0.766603    0.447882
  0.512263    0.771193    0.553299
  0.547478    0.720955    0.518488
  0.545246    0.786629    0.492887
  0.469720    0.760394    0.697642
  0.439855    0.741477    0.758683
  0.482687    0.696691    0.725022
  0.538652    0.793304    0.741567
  0.508787    0.774388    0.802608
  0.551619    0.729602    0.768946
  0.809868    0.999940    0.986506
  0.773564    0.055842    0.009588
  0.759271    0.028208    0.946299
  0.750556    0.946203    0.023363
  0.714252    0.002104    0.046446
  0.699959    0.974471    0.983156
  0.693664    0.022640    0.258943
  0.746635    0.056977    0.227465
  0.750952    0.040670    0.295941
  0.731252    0.945680    0.238246
  0.784223    0.980017    0.206768
  0.788540    0.963710    0.275244
  0.728801    0.993299    0.557201
  0.787098    0.962823    0.531736
  0.723875    0.944822    0.506197
  0.735344    0.056675    0.496334
  0.793641    0.026199    0.470869
  0.730417    0.008198    0.445330
  0.776445    0.958173    0.786297
  0.706894    0.967720    0.779418
  0.746691    0.018142    0.808527
  0.789222    0.993980    0.706806
  0.719671    0.003527    0.699927
  0.759468    0.053949    0.729037
  0.786386    0.296701    0.016168
  0.737041    0.299293    0.965828
  0.793643    0.258035    0.957618
  0.743474    0.230142    0.054803
  0.694129    0.232735    0.004463
  0.750732    0.191477    0.996253
  0.771004    0.252824    0.192406
  0.714460    0.216128    0.213188
  0.778692    0.197674    0.235709
  0.761947    0.306167    0.261951
  0.705403    0.269471    0.282734
  0.769635    0.251017    0.305254
  0.793034    0.252792    0.543664
  0.773693    0.194195    0.509486
  0.728085    0.226680    0.552359
  0.764363    0.301630    0.476159
  0.745023    0.243033    0.441981
  0.699414    0.275518    0.484853
  0.730022    0.196485    0.772435
  0.738901    0.255459    0.810104
  0.794753    0.222831    0.782008
  0.721272    0.244614    0.699147
  0.730151    0.303589    0.736816
  0.786003    0.270960    0.708720
  0.802936    0.475521    0.980900
  0.795757    0.539951    0.008703
  0.766343    0.524971    0.946382
  0.729335    0.449646    0.021857
  0.722156    0.514075    0.049660
  0.692742    0.499096    0.987339
  0.721842    0.541196    0.285726
  0.691314    0.483961    0.258014
  0.713748    0.535854    0.215856
  0.800599    0.502161    0.279586
  0.770071    0.444926    0.251875
  0.792505    0.496819    0.209717
  0.738712    0.456743    0.542044
  0.705845    0.519034    0.538125
  0.774549    0.516350    0.553810
  0.758478    0.461780    0.456323
  0.725611    0.524071    0.452405
  0.794315    0.521388    0.468090
  0.710930    0.517228    0.705921
  0.703242    0.460377    0.746965
  0.756598    0.463697    0.700969
  0.761622    0.554784    0.767435
  0.753934    0.497932    0.808479
  0.807290    0.501252    0.762484
  0.748616    0.785033    0.050369
  0.694232    0.747627    0.025491
  0.719544    0.801989    0.988376
  0.804668    0.730874    0.009271
  0.750284    0.693468    0.984393
  0.775597    0.747830    0.947278
  0.791836    0.766361    0.208187
  0.726545    0.792682    0.212669
  0.736143    0.724895    0.195748
  0.788941    0.744647    0.293534
  0.723650    0.770968    0.298016
  0.733249    0.703181    0.281096
  0.742442    0.801364    0.467276
  0.786280    0.794289    0.522084
  0.716565    0.790325    0.531962
  0.745457    0.714365    0.453634
  0.789295    0.707290    0.508443
  0.719580    0.703325    0.518320
  0.796984    0.787692    0.738247
  0.775893    0.768041    0.802627
  0.733860    0.807891    0.762394
  0.760684    0.714995    0.704166
  0.739592    0.695344    0.768546
  0.697560    0.735194    0.728313
  0.125000    0.125000    0.125000
  0.125000    0.125000    0.375000
  0.125000    0.125000    0.625000
  0.125000    0.125000    0.875000
  0.125000    0.375000    0.125000
  0.125000    0.375000    0.375000
  0.125000    0.375000    0.625000
  0.125000    0.375000    0.875000
  0.125000    0.625000    0.125000
  0.125000    0.625000    0.375000
  0.125000    0.625000    0.625000
  0.125000    0.625000    0.875000
  0.125000    0.875000    0.125000
  0.125000    0.875000    0.375000
  0.125000    0.875000    0.625000
  0.125000    0.875000    0.875000
  0.375000    0.125000    0.125000
  0.375000    0.125000    0.375000
  0.375000    0.125000    0.625000
  0.375000    0.125000    0.875000
  0.375000    0.375000    0.125000
  0.375000    0.375000    0.375000
  0.375000    0.375000    0.625000
  0.375000    0.375000    0.875000
  0.375000    0.625000    0.125000
  0.375000    0.625000    0.375000
  0.375000    0.625000    0.625000
  0.375000    0.625000    0.875000
  0.375000    0.875000    0.125000
  0.375000    0.875000    0.375000
  0.375000    0.875000    0.625000
  0.375000    0.875000    0.875000
  0.625000    0.125000    0.125000
  0.625000    0.125000    0.375000
  0.625000    0.125000    0.625000
  0.625000    0.125000    0.875000
  0.625000    0.375000    0.125000
  0.625000    0.375000    0.375000
  0.625000    0.375000    0.625000
  0.625000    0.375000    0.875000
  0.625000    0.625000    0.125000
  0.625000    0.625000    0.375000
  0.625000    0.625000    0.625000
  0.625000    0.625000    0.875000
  0.625000    0.875000    0.125000
  0.625000    0.875000    0.375000
  0.625000    0.875000    0.625000
  0.625000    0.875000    0.875000
  0.875000    0.125000    0.125000
  0.875000    0.125000    0.375000
  0.875000    0.125000    0.625000
  0.875000    0.125000    0.875000
  0.875000    0.375000    0.125000
  0.875000    0.375000    0.375000
  0.875000    0.375000    0.625000
  0.875000    0.375000    0.875000
  0.875000    0.625000    0.125000
  0.875000    0.625000    0.375000
  0.875000    0.625000    0.625000
  0.875000    0.625000    0.875000
  0.875000    0.875000    0.125000
  0.875000    0.875000    0.375000
  0.875000    0.875000    0.625000
  0.875000    0.875000    0.875000
  0.125000    0.125000    0.000000
  0.125000    0.125000    0.250000
  0.125000    0.375000    0.250000
  0.125000    0.375000    0.500000
  0.125000    0.375000    0.750000
  0.125000    0.625000    0.000000
  0.125000    0.625000    0.500000
  0.125000    0.625000    0.750000
  0.125000    0.875000    0.250000
  0.125000    0.875000    0.500000
  0.125000    0.875000    0.750000
  0.375000    0.125000    0.250000
  0.375000    0.375000    0.500000
  0.375000    0.625000    0.000000
  0.375000    0.625000    0.250000
  0.375000    0.625000    0.750000
  0.375000    0.875000    0.250000
  0.375000    0.875000    0.500000
  0.625000    0.125000    0.000000
  0.625000    0.125000    0.250000
  0.625000    0.125000    0.750000
  0.625000    0.375000    0.000000
  0.625000    0.375000    0.250000
  0.625000    0.375000    0.750000
  0.625000    0.625000    0.750000
  0.625000    0.875000    0.500000
  0.625000    0.875000    0.750000
  0.875000    0.125000    0.000000
  0.875000    0.125000    0.250000
  0.875000    0.125000    0.500000
  0.875000    0.125000    0.750000
  0.875000    0.375000    0.500000
  0.875000    0.375000    0.750000
  0.875000    0.625000    0.750000
  0.875000    0.875000    0.500000
  0.000000    0.125000    0.625000
  0.000000    0.125000    0.875000
  0.000000    0.375000    0.375000
  0.000000    0.375000    0.875000
  0.000000    0.625000    0.125000
  0.000000    0.625000    0.625000
  0.000000    0.875000    0.125000
  0.000000    0.875000    0.375000
  0.250000    0.125000    0.375000
  0.250000    0.375000    0.125000
  0.250000    0.625000    0.125000
  0.250000    0.625000    0.625000
  0.250000    0.625000    0.875000
  0.250000    0.875000    0.375000
  0.250000    0.875000    0.625000
  0.500000    0.125000    0.375000
  0.500000    0.375000    0.125000
  0.500000    0.625000    0.125000
  0.500000    0.625000    0.375000
  0.500000    0.875000    0.125000
  0.500000    0.875000    0.625000
  0.750000    0.125000    0.375000
  0.750000    0.125000    0.625000
  0.750000    0.125000    0.875000
  0.750000    0.375000    0.125000
  0.750000    0.625000    0.125000
  0.750000    0.875000    0.375000
  0.750000    0.875000    0.625000
  0.750000    0.875000    0.875000
  0.125000    0.000000    0.125000
  0.125000    0.000000    0.375000
  0.125000    0.000000    0.625000
  0.125000    0.000000    0.875000
  0.125000    0.250000    0.375000
  0.125000    0.500000    0.125000
  0.125000    0.500000    0.375000
  0.125000    0.750000    0.625000
  0.375000    0.000000    0.375000
  0.375000    0.000000    0.625000
  0.375000    0.250000    0.125000
  0.375000    0.250000    0.375000
  0.375000    0.500000    0.375000
  0.375000    0.500000    0.875000
  0.375000    0.750000    0.125000
  0.375000    0.750000    0.875000
  0.625000    0.000000    0.875000
  0.625000    0.250000    0.375000
  0.625000    0.500000    0.375000
  0.625000    0.500000    0.625000
  0.625000    0.750000    0.125000
  0.625000    0.750000    0.375000
  0.625000    0.750000    0.875000
  0.875000    0.000000    0.125000
  0.875000    0.000000    0.875000
  0.875000    0.250000    0.125000
  0.875000    0.250000    0.375000
  0.875000    0.250000    0.625000
  0.875000    0.500000    0.125000
  0.875000    0.500000    0.375000
  0.875000    0.750000    0.375000
  0.875000    0.750000    0.625000
  0.125000    0.125000    0.500000
  0.125000    0.125000    0.750000
  0.125000    0.375000    0.000000
  0.125000    0.625000    0.250000
  0.125000    0.875000    0.000000
  0.375000    0.125000    0.000000
  0.375000    0.125000    0.500000
  0.375000    0.125000    0.750000
  0.375000    0.375000    0.000000
  0.375000    0.375000    0.250000
  0.375000    0.375000    0.750000
  0.375000    0.625000    0.500000
  0.375000    0.875000    0.000000
  0.375000    0.875000    0.750000
  0.625000    0.125000    0.500000
  0.625000    0.375000    0.500000
  0.625000    0.625000    0.000000
  0.625000    0.625000    0.250000
  0.625000    0.625000    0.500000
  0.625000    0.875000    0.000000
  0.625000    0.875000    0.250000
  0.875000    0.375000    0.000000
  0.875000    0.375000    0.250000
  0.875000    0.625000    0.000000
  0.875000    0.625000    0.250000
  0.875000    0.625000    0.500000
  0.875000    0.875000    0.000000
  0.875000    0.875000    0.250000
  0.875000    0.875000    0.750000
  0.000000    0.125000    0.125000
  0.000000    0.125000    0.375000
  0.000000    0.375000    0.125000
  0.000000    0.375000    0.625000
  0.000000    0.625000    0.375000
  0.000000    0.625000    0.875000
  0.000000    0.875000    0.625000
  0.000000    0.875000    0.875000
  0.250000    0.125000    0.125000
  0.250000    0.125000    0.625000
  0.250000    0.125000    0.875000
  0.250000    0.375000    0.375000
  0.250000    0.375000    0.625000
  0.250000    0.375000    0.875000
  0.250000    0.625000    0.375000
  0.250000    0.875000    0.125000
  0.250000    0.875000    0.875000
  0.500000    0.125000    0.125000
  0.500000    0.125000    0.625000
  0.500000    0.125000    0.875000
  0.500000    0.375000    0.375000
  0.500000    0.375000    0.625000
  0.500000    0.375000    0.875000
  0.500000    0.625000    0.625000
  0.500000    0.625000    0.875000
  0.500000    0.875000    0.375000
  0.500000    0.875000    0.875000
  0.750000    0.125000    0.125000
  0.750000    0.375000    0.375000
  0.750000    0.375000    0.625000
  0.750000    0.375000    0.875000
  0.750000    0.625000    0.375000
  0.750000    0.625000    0.625000
  0.750000    0.625000    0.875000
  0.750000    0.875000    0.125000
  0.125000    0.250000    0.125000
  0.125000    0.250000    0.625000
  0.125000    0.250000    0.875000
  0.125000    0.500000    0.625000
  0.125000    0.500000    0.875000
  0.125000    0.750000    0.125000
  0.125000    0.750000    0.375000
  0.125000    0.750000    0.875000
  0.375000    0.000000    0.125000
  0.375000    0.000000    0.875000
  0.375000    0.250000    0.625000
  0.375000    0.250000    0.875000
  0.375000    0.500000    0.125000
  0.375000    0.500000    0.625000
  0.375000    0.750000    0.375000
  0.375000    0.750000    0.625000
  0.625000    0.000000    0.125000
  0.625000    0.000000    0.375000
  0.625000    0.000000    0.625000
  0.625000    0.250000    0.125000
  0.625000    0.250000    0.625000
  0.625000    0.250000    0.875000
  0.625000    0.500000    0.125000
  0.625000    0.500000    0.875000
  0.625000    0.750000    0.625000
  0.875000    0.000000    0.375000
  0.875000    0.000000    0.625000
  0.875000    0.250000    0.875000
  0.875000    0.500000    0.625000
  0.875000    0.500000    0.875000
  0.875000    0.750000    0.125000
  0.875000    0.750000    0.875000
