 vasp           
 1.00000000
 12.620000    0.000000    0.000000
  0.000000   12.620000    0.000000
  0.000000    0.000000   12.620000
C N H Pb Br I
   8    8   48    8    2   22
 Direct
  0.061366    0.001512    0.987855
  0.005530    0.969496    0.445645
  0.028954    0.444802    0.994486
  0.030700    0.528037    0.546765
  0.519457    0.027078    0.052950
  0.448123    0.970827    0.519319
  0.535969    0.500590    0.051200
  0.445107    0.473404    0.513964
  0.945813    0.998665    0.010725
  0.995117    0.026936    0.547997
  0.974433    0.548741    0.004869
  0.972891    0.475242    0.458706
  0.482819    0.976090    0.953243
  0.545809    0.025761    0.482941
  0.468239    0.499479    0.954789
  0.548472    0.523485    0.487669
  0.097157    0.925488    0.008586
  0.098823    0.064199    0.034272
  0.074141    0.016967    0.903681
  0.924332    0.921231    0.042791
  0.925999    0.059941    0.068477
  0.901316    0.012710    0.937886
  0.949005    0.001340    0.388363
  0.989544    0.885302    0.457608
  0.085792    0.979084    0.414769
  0.933432    0.087249    0.541443
  0.973971    0.971211    0.610688
  0.070218    0.064994    0.567849
  0.970517    0.382301    0.981482
  0.073303    0.427696    0.066790
  0.083630    0.447031    0.927458
  0.888974    0.537756    0.997010
  0.991760    0.583151    0.082318
  0.002087    0.602485    0.942986
  0.005610    0.494467    0.622487
  0.013670    0.612872    0.546207
  0.115858    0.516076    0.537155
  0.919148    0.415506    0.490784
  0.927208    0.533910    0.414504
  0.029396    0.437114    0.405452
  0.572393    0.092974    0.034354
  0.561870    0.969321    0.101454
  0.451384    0.056896    0.097270
  0.517596    0.016715    0.885230
  0.507073    0.893062    0.952330
  0.396587    0.980637    0.948145
  0.454037    0.953628    0.603933
  0.438362    0.896665    0.475821
  0.379249    0.021291    0.505284
  0.600138    0.035789    0.549525
  0.584463    0.978826    0.421413
  0.525350    0.103452    0.450876
  0.486578    0.491878    0.121733
  0.579128    0.575449    0.055752
  0.592622    0.435270    0.047887
  0.385278    0.490216    0.977539
  0.477829    0.573787    0.911557
  0.491323    0.433609    0.903693
  0.392265    0.477758    0.445561
  0.408724    0.514747    0.580705
  0.457383    0.390425    0.535203
  0.546860    0.552660    0.406232
  0.563319    0.589649    0.541377
  0.611978    0.465327    0.495875
  0.250000    0.250000    0.250000
  0.250000    0.250000    0.750000
  0.250000    0.750000    0.250000
  0.250000    0.750000    0.750000
  0.750000    0.250000    0.250000
  0.750000    0.250000    0.750000
  0.750000    0.750000    0.250000
  0.750000    0.750000    0.750000
  0.250000    0.250000    0.000000
  0.750000    0.750000    0.500000
  0.250000    0.250000    0.500000
  0.250000    0.750000    0.000000
  0.250000    0.750000    0.500000
  0.750000    0.250000    0.000000
  0.750000    0.250000    0.500000
  0.750000    0.750000    0.000000
  0.000000    0.250000    0.250000
  0.000000    0.250000    0.750000
  0.000000    0.750000    0.250000
  0.000000    0.750000    0.750000
  0.500000    0.250000    0.250000
  0.500000    0.250000    0.750000
  0.500000    0.750000    0.250000
  0.500000    0.750000    0.750000
  0.250000    0.000000    0.250000
  0.250000    0.000000    0.750000
  0.250000    0.500000    0.250000
  0.250000    0.500000    0.750000
  0.750000    0.000000    0.250000
  0.750000    0.000000    0.750000
  0.750000    0.500000    0.250000
  0.750000    0.500000    0.750000
