 vasp           
 1.00000000
 12.620000    0.000000    0.000000
  0.000000   12.620000    0.000000
  0.000000    0.000000   12.620000
C N H Pb Br I
   8    8   48    8    2   22
 Direct
  0.049186    0.987964    0.963238
  0.056408    0.992615    0.473941
  0.049805    0.531581    0.020920
  0.981898    0.523547    0.555076
  0.508570    0.018019    0.059308
  0.467098    0.949565    0.517009
  0.515095    0.445983    0.027746
  0.535616    0.550094    0.511730
  0.956568    0.010628    0.032462
  0.950190    0.006521    0.523011
  0.956021    0.472113    0.981527
  0.015985    0.479207    0.451366
  0.492433    0.984089    0.947630
  0.529054    0.044535    0.484980
  0.486671    0.547698    0.975500
  0.468550    0.455765    0.489642
  0.040328    0.029717    0.887948
  0.054315    0.902910    0.948178
  0.121863    0.014393    0.002054
  0.901806    0.063613    0.991481
  0.915793    0.936807    0.051711
  0.983342    0.048290    0.105588
  0.117565    0.996296    0.535069
  0.070286    0.055355    0.415990
  0.060449    0.915840    0.434234
  0.958701    0.017096    0.608459
  0.911423    0.076154    0.489380
  0.901585    0.936639    0.507624
  0.023875    0.603264    0.061901
  0.100521    0.553620    0.954365
  0.094838    0.482129    0.075818
  0.883608    0.514323    0.002985
  0.960254    0.464679    0.895449
  0.954571    0.393188    0.016902
  0.025575    0.485048    0.619111
  0.897172    0.509980    0.566249
  0.997570    0.608621    0.557075
  0.076556    0.418733    0.464000
  0.948154    0.443664    0.411138
  0.048552    0.542306    0.401964
  0.446479    0.073803    0.082181
  0.585694    0.056417    0.067347
  0.505549    0.949094    0.111534
  0.422344    0.023057    0.915152
  0.561559    0.005671    0.900318
  0.481414    0.898348    0.944505
  0.518806    0.880189    0.518888
  0.403166    0.935880    0.460328
  0.433198    0.961927    0.595656
  0.611469    0.022228    0.470985
  0.495830    0.077919    0.412425
  0.525861    0.103967    0.547752
  0.449814    0.419763    0.078157
  0.585925    0.456821    0.076252
  0.530706    0.385643    0.967724
  0.407302    0.571891    0.000016
  0.543413    0.608949    0.998111
  0.488194    0.537772    0.889582
  0.488301    0.611097    0.550849
  0.567025    0.581660    0.437539
  0.601449    0.527749    0.563247
  0.387996    0.470017    0.517813
  0.466719    0.440579    0.404503
  0.501143    0.386668    0.530211
  0.250000    0.250000    0.250000
  0.250000    0.250000    0.750000
  0.250000    0.750000    0.250000
  0.250000    0.750000    0.750000
  0.750000    0.250000    0.250000
  0.750000    0.250000    0.750000
  0.750000    0.750000    0.250000
  0.750000    0.750000    0.750000
  0.250000    0.250000    0.000000
  0.250000    0.750000    0.000000
  0.250000    0.250000    0.500000
  0.250000    0.750000    0.500000
  0.750000    0.250000    0.000000
  0.750000    0.250000    0.500000
  0.750000    0.750000    0.000000
  0.750000    0.750000    0.500000
  0.000000    0.250000    0.250000
  0.000000    0.250000    0.750000
  0.000000    0.750000    0.250000
  0.000000    0.750000    0.750000
  0.500000    0.250000    0.250000
  0.500000    0.250000    0.750000
  0.500000    0.750000    0.250000
  0.500000    0.750000    0.750000
  0.250000    0.000000    0.250000
  0.250000    0.000000    0.750000
  0.250000    0.500000    0.250000
  0.250000    0.500000    0.750000
  0.750000    0.000000    0.250000
  0.750000    0.000000    0.750000
  0.750000    0.500000    0.250000
  0.750000    0.500000    0.750000
