opti conp
title
 gamma-Fe2O3 (maghemite) Fe vacancies - configuration 20
end

cell
    8.3440      8.3440     25.0320     90.0000     90.0000     90.0000
frac
 Fe  core    0.6250000    0.6250000    0.2083333
 Fe  core    0.6250000    0.6250000    0.5416667
 Fe  core    0.1250000    0.8750000    0.7916667
 Fe  core    0.3750000    0.1250000    0.9583334
 Fe  core    0.9921000    0.9921000    0.3307000
 Fe  core    0.9921000    0.9921000    0.6640334
 Fe  core    0.9921000    0.9921000    0.9973667
 Fe  core    0.7579000    0.2421000    0.2473667
 Fe  core    0.7579000    0.2421000    0.5807000
 Fe  core    0.7579000    0.2421000    0.9140334
 Fe  core    0.5079000    0.0079000    0.1640333
 Fe  core    0.5079000    0.0079000    0.4973667
 Fe  core    0.5079000    0.0079000    0.8307000
 Fe  core    0.7421000    0.7579000    0.0807000
 Fe  core    0.7421000    0.7579000    0.4140334
 Fe  core    0.7421000    0.7579000    0.7473667
 Fe  core    0.4921000    0.5079000    0.0026333
 Fe  core    0.4921000    0.5079000    0.3359667
 Fe  core    0.4921000    0.5079000    0.6693000
 Fe  core    0.2579000    0.2579000    0.0859667
 Fe  core    0.2579000    0.2579000    0.4193000
 Fe  core    0.2579000    0.2579000    0.7526333
 Fe  core    0.0079000    0.4921000    0.1693000
 Fe  core    0.0079000    0.4921000    0.5026333
 Fe  core    0.0079000    0.4921000    0.8359667
 Fe  core    0.2421000    0.7421000    0.2526333
 Fe  core    0.2421000    0.7421000    0.5859667
 Fe  core    0.2421000    0.7421000    0.9193000
 Fe  core    0.8650000    0.6150000    0.2916667
 Fe  core    0.8650000    0.6150000    0.6250000
 Fe  core    0.8650000    0.6150000    0.9583334
 Fe  core    0.1350000    0.1150000    0.2083333
 Fe  core    0.1350000    0.1150000    0.5416667
 Fe  core    0.1350000    0.1150000    0.8750000
 Fe  core    0.6350000    0.3850000    0.1250000
 Fe  core    0.6350000    0.3850000    0.4583333
 Fe  core    0.6350000    0.3850000    0.7916667
 Fe  core    0.3650000    0.8850000    0.0416667
 Fe  core    0.3650000    0.8850000    0.3750000
 Fe  core    0.3650000    0.8850000    0.7083334
 Fe  core    0.8750000    0.8650000    0.2050000
 Fe  core    0.8750000    0.8650000    0.5383334
 Fe  core    0.8750000    0.8650000    0.8716667
 Fe  core    0.6250000    0.1350000    0.0383333
 Fe  core    0.6250000    0.1350000    0.3716667
 Fe  core    0.6250000    0.1350000    0.7050000
 Fe  core    0.3750000    0.6350000    0.1283333
 Fe  core    0.3750000    0.6350000    0.4616667
 Fe  core    0.3750000    0.6350000    0.7950000
 Fe  core    0.1250000    0.3650000    0.2950000
 Fe  core    0.1250000    0.3650000    0.6283333
 Fe  core    0.1250000    0.3650000    0.9616667
 Fe  core    0.6150000    0.8750000    0.2883333
 Fe  core    0.6150000    0.8750000    0.6216667
 Fe  core    0.6150000    0.8750000    0.9550000
 Fe  core    0.1150000    0.6250000    0.0450000
 Fe  core    0.1150000    0.6250000    0.3783333
 Fe  core    0.1150000    0.6250000    0.7116667
 Fe  core    0.3850000    0.3750000    0.2116667
 Fe  core    0.3850000    0.3750000    0.5450000
 Fe  core    0.3850000    0.3750000    0.8783333
 Fe  core    0.8850000    0.1250000    0.1216667
 Fe  core    0.8850000    0.1250000    0.4550000
 Fe  core    0.8850000    0.1250000    0.7883334
 O2  core    0.3817000    0.3817000    0.1272333
 O2  shel    0.3817000    0.3817000    0.1272333
 O2  core    0.3817000    0.3817000    0.4605667
 O2  shel    0.3817000    0.3817000    0.4605667
 O2  core    0.3817000    0.3817000    0.7939000
 O2  shel    0.3817000    0.3817000    0.7939000
 O2  core    0.3683000    0.6317000    0.0439000
 O2  shel    0.3683000    0.6317000    0.0439000
 O2  core    0.3683000    0.6317000    0.3772334
 O2  shel    0.3683000    0.6317000    0.3772334
 O2  core    0.3683000    0.6317000    0.7105667
 O2  shel    0.3683000    0.6317000    0.7105667
 O2  core    0.1183000    0.6183000    0.2939000
 O2  shel    0.1183000    0.6183000    0.2939000
 O2  core    0.1183000    0.6183000    0.6272334
 O2  shel    0.1183000    0.6183000    0.6272334
 O2  core    0.1183000    0.6183000    0.9605667
 O2  shel    0.1183000    0.6183000    0.9605667
 O2  core    0.1317000    0.3683000    0.2105667
 O2  shel    0.1317000    0.3683000    0.2105667
 O2  core    0.1317000    0.3683000    0.5439000
 O2  shel    0.1317000    0.3683000    0.5439000
 O2  core    0.1317000    0.3683000    0.8772334
 O2  shel    0.1317000    0.3683000    0.8772334
 O2  core    0.8817000    0.1183000    0.2061000
 O2  shel    0.8817000    0.1183000    0.2061000
 O2  core    0.8817000    0.1183000    0.5394334
 O2  shel    0.8817000    0.1183000    0.5394334
 O2  core    0.8817000    0.1183000    0.8727667
 O2  shel    0.8817000    0.1183000    0.8727667
 O2  core    0.8683000    0.8683000    0.2894333
 O2  shel    0.8683000    0.8683000    0.2894333
 O2  core    0.8683000    0.8683000    0.6227667
 O2  shel    0.8683000    0.8683000    0.6227667
 O2  core    0.8683000    0.8683000    0.9561000
 O2  shel    0.8683000    0.8683000    0.9561000
 O2  core    0.6183000    0.8817000    0.0394333
 O2  shel    0.6183000    0.8817000    0.0394333
 O2  core    0.6183000    0.8817000    0.3727667
 O2  shel    0.6183000    0.8817000    0.3727667
 O2  core    0.6183000    0.8817000    0.7061000
 O2  shel    0.6183000    0.8817000    0.7061000
 O2  core    0.6317000    0.1317000    0.1227667
 O2  shel    0.6317000    0.1317000    0.1227667
 O2  core    0.6317000    0.1317000    0.4561000
 O2  shel    0.6317000    0.1317000    0.4561000
 O2  core    0.6317000    0.1317000    0.7894334
 O2  shel    0.6317000    0.1317000    0.7894334
 O2  core    0.3817000    0.8736000    0.2939667
 O2  shel    0.3817000    0.8736000    0.2939667
 O2  core    0.3817000    0.8736000    0.6273000
 O2  shel    0.3817000    0.8736000    0.6273000
 O2  core    0.3817000    0.8736000    0.9606334
 O2  shel    0.3817000    0.8736000    0.9606334
 O2  core    0.8764000    0.6317000    0.2106334
 O2  shel    0.8764000    0.6317000    0.2106334
 O2  core    0.8764000    0.6317000    0.5439667
 O2  shel    0.8764000    0.6317000    0.5439667
 O2  core    0.8764000    0.6317000    0.8773000
 O2  shel    0.8764000    0.6317000    0.8773000
 O2  core    0.1183000    0.1264000    0.1273000
 O2  shel    0.1183000    0.1264000    0.1273000
 O2  core    0.1183000    0.1264000    0.4606334
 O2  shel    0.1183000    0.1264000    0.4606334
 O2  core    0.1183000    0.1264000    0.7939667
 O2  shel    0.1183000    0.1264000    0.7939667
 O2  core    0.6236000    0.3683000    0.0439667
 O2  shel    0.6236000    0.3683000    0.0439667
 O2  core    0.6236000    0.3683000    0.3773000
 O2  shel    0.6236000    0.3683000    0.3773000
 O2  core    0.6236000    0.3683000    0.7106334
 O2  shel    0.6236000    0.3683000    0.7106334
 O2  core    0.8817000    0.6264000    0.0393667
 O2  shel    0.8817000    0.6264000    0.0393667
 O2  core    0.8817000    0.6264000    0.3727000
 O2  shel    0.8817000    0.6264000    0.3727000
 O2  core    0.8817000    0.6264000    0.7060333
 O2  shel    0.8817000    0.6264000    0.7060333
 O2  core    0.3764000    0.8683000    0.1227000
 O2  shel    0.3764000    0.8683000    0.1227000
 O2  core    0.3764000    0.8683000    0.4560333
 O2  shel    0.3764000    0.8683000    0.4560333
 O2  core    0.3764000    0.8683000    0.7893667
 O2  shel    0.3764000    0.8683000    0.7893667
 O2  core    0.6183000    0.3736000    0.2060333
 O2  shel    0.6183000    0.3736000    0.2060333
 O2  core    0.6183000    0.3736000    0.5393667
 O2  shel    0.6183000    0.3736000    0.5393667
 O2  core    0.6183000    0.3736000    0.8727000
 O2  shel    0.6183000    0.3736000    0.8727000
 O2  core    0.1236000    0.1317000    0.2893667
 O2  shel    0.1236000    0.1317000    0.2893667
 O2  core    0.1236000    0.1317000    0.6227000
 O2  shel    0.1236000    0.1317000    0.6227000
 O2  core    0.1236000    0.1317000    0.9560333
 O2  shel    0.1236000    0.1317000    0.9560333
 O2  core    0.8819000    0.3817000    0.2912000
 O2  shel    0.8819000    0.3817000    0.2912000
 O2  core    0.8819000    0.3817000    0.6245334
 O2  shel    0.8819000    0.3817000    0.6245334
 O2  core    0.8819000    0.3817000    0.9578667
 O2  shel    0.8819000    0.3817000    0.9578667
 O2  core    0.6319001    0.8764000    0.2105667
 O2  shel    0.6319001    0.8764000    0.2105667
 O2  core    0.6319001    0.8764000    0.5439000
 O2  shel    0.6319001    0.8764000    0.5439000
 O2  core    0.6319001    0.8764000    0.8772334
 O2  shel    0.6319001    0.8764000    0.8772334
 O2  core    0.3819001    0.1183000    0.0421333
 O2  shel    0.3819001    0.1183000    0.0421333
 O2  core    0.3819001    0.1183000    0.3754667
 O2  shel    0.3819001    0.1183000    0.3754667
 O2  core    0.3819001    0.1183000    0.7088000
 O2  shel    0.3819001    0.1183000    0.7088000
 O2  core    0.1319001    0.6236000    0.1227667
 O2  shel    0.1319001    0.6236000    0.1227667
 O2  core    0.1319001    0.6236000    0.4561000
 O2  shel    0.1319001    0.6236000    0.4561000
 O2  core    0.1319001    0.6236000    0.7894334
 O2  shel    0.1319001    0.6236000    0.7894334
 O2  core    0.1181000    0.8817000    0.2088000
 O2  shel    0.1181000    0.8817000    0.2088000
 O2  core    0.1181000    0.8817000    0.5421333
 O2  shel    0.1181000    0.8817000    0.5421333
 O2  core    0.1181000    0.8817000    0.8754667
 O2  shel    0.1181000    0.8817000    0.8754667
 O2  core    0.3681000    0.3764000    0.2894333
 O2  shel    0.3681000    0.3764000    0.2894333
 O2  core    0.3681000    0.3764000    0.6227667
 O2  shel    0.3681000    0.3764000    0.6227667
 O2  core    0.3681000    0.3764000    0.9561000
 O2  shel    0.3681000    0.3764000    0.9561000
 O2  core    0.6181000    0.6183000    0.1245333
 O2  shel    0.6181000    0.6183000    0.1245333
 O2  core    0.6181000    0.6183000    0.4578667
 O2  shel    0.6181000    0.6183000    0.4578667
 O2  core    0.6181000    0.6183000    0.7912000
 O2  shel    0.6181000    0.6183000    0.7912000
 O2  core    0.8681000    0.1236000    0.0439000
 O2  shel    0.8681000    0.1236000    0.0439000
 O2  core    0.8681000    0.1236000    0.3772334
 O2  shel    0.8681000    0.1236000    0.3772334
 O2  core    0.8681000    0.1236000    0.7105667
 O2  shel    0.8681000    0.1236000    0.7105667
 O2  core    0.8736000    0.8819000    0.1272333
 O2  shel    0.8736000    0.8819000    0.1272333
 O2  core    0.8736000    0.8819000    0.4605667
 O2  shel    0.8736000    0.8819000    0.4605667
 O2  core    0.8736000    0.8819000    0.7939000
 O2  shel    0.8736000    0.8819000    0.7939000
 O2  core    0.6317000    0.6319001    0.2921333
 O2  shel    0.6317000    0.6319001    0.2921333
 O2  core    0.6317000    0.6319001    0.6254667
 O2  shel    0.6317000    0.6319001    0.6254667
 O2  core    0.6317000    0.6319001    0.9588000
 O2  shel    0.6317000    0.6319001    0.9588000
 O2  core    0.1264000    0.3819001    0.0394333
 O2  shel    0.1264000    0.3819001    0.0394333
 O2  core    0.1264000    0.3819001    0.3727667
 O2  shel    0.1264000    0.3819001    0.3727667
 O2  core    0.1264000    0.3819001    0.7061000
 O2  shel    0.1264000    0.3819001    0.7061000
 O2  core    0.3683000    0.1319001    0.2078667
 O2  shel    0.3683000    0.1319001    0.2078667
 O2  core    0.3683000    0.1319001    0.5412000
 O2  shel    0.3683000    0.1319001    0.5412000
 O2  core    0.3683000    0.1319001    0.8745334
 O2  shel    0.3683000    0.1319001    0.8745334
 O2  core    0.6264000    0.1181000    0.2939000
 O2  shel    0.6264000    0.1181000    0.2939000
 O2  core    0.6264000    0.1181000    0.6272334
 O2  shel    0.6264000    0.1181000    0.6272334
 O2  core    0.6264000    0.1181000    0.9605667
 O2  shel    0.6264000    0.1181000    0.9605667
 O2  core    0.8683000    0.3681000    0.1254667
 O2  shel    0.8683000    0.3681000    0.1254667
 O2  core    0.8683000    0.3681000    0.4588000
 O2  shel    0.8683000    0.3681000    0.4588000
 O2  core    0.8683000    0.3681000    0.7921333
 O2  shel    0.8683000    0.3681000    0.7921333
 O2  core    0.3736000    0.6181000    0.2061000
 O2  shel    0.3736000    0.6181000    0.2061000
 O2  core    0.3736000    0.6181000    0.5394334
 O2  shel    0.3736000    0.6181000    0.5394334
 O2  core    0.3736000    0.6181000    0.8727667
 O2  shel    0.3736000    0.6181000    0.8727667
 O2  core    0.1317000    0.8681000    0.0412000
 O2  shel    0.1317000    0.8681000    0.0412000
 O2  core    0.1317000    0.8681000    0.3745334
 O2  shel    0.1317000    0.8681000    0.3745334
 O2  core    0.1317000    0.8681000    0.7078667
 O2  shel    0.1317000    0.8681000    0.7078667

# The sod_type_map lines below map SOD species labels to GULP atom types.
# Both FeA (tetrahedral) and FeB (octahedral) are treated as Fe(III) in catlow.lib.

library catlow.lib
