 vasp           
 1.00000000
 12.620000    0.000000    0.000000
  0.000000   12.620000    0.000000
  0.000000    0.000000   12.620000
C N H Pb Br I
   8    8   48    8    2   22
 Direct
  0.054069    0.991361    0.030290
  0.968780    0.052898    0.511942
  0.946033    0.510913    0.970268
  0.939117    0.489098    0.490516
  0.557171    0.974593    0.998790
  0.483925    0.980033    0.442917
  0.491458    0.460409    0.952302
  0.536128    0.541498    0.529803
  0.952256    0.007628    0.973253
  0.027568    0.953289    0.489455
  0.047654    0.490363    0.026255
  0.053761    0.509626    0.508375
  0.449516    0.022435    0.001068
  0.514194    0.017632    0.550406
  0.507543    0.534960    0.042119
  0.468098    0.463356    0.473683
  0.112731    0.048495    0.002274
  0.083230    0.911197    0.015776
  0.042040    0.002281    0.115280
  0.960457    0.072824    0.916969
  0.930956    0.935527    0.930471
  0.889766    0.026611    0.029974
  0.996726    0.115818    0.459497
  0.981704    0.076552    0.594166
  0.884145    0.040479    0.498902
  0.084651    0.966840    0.425866
  0.069629    0.927573    0.560534
  0.972071    0.891501    0.465271
  0.906875    0.435862    0.952259
  0.961379    0.553426    0.896481
  0.894194    0.558751    0.020383
  0.058862    0.405127    0.035995
  0.113366    0.522690    0.980217
  0.046181    0.528015    0.104119
  0.897113    0.490022    0.566180
  0.928737    0.411747    0.453149
  0.906154    0.550244    0.438922
  0.068578    0.520724    0.592891
  0.100202    0.442449    0.479860
  0.077619    0.580947    0.465633
  0.554505    0.894972    0.032610
  0.611797    0.023302    0.044949
  0.585354    0.969887    0.917115
  0.393494    0.966527    0.036018
  0.450786    0.094857    0.048356
  0.424343    0.041442    0.920522
  0.553315    0.980404    0.391195
  0.423381    0.032158    0.409682
  0.452546    0.899545    0.447856
  0.598587    0.036638    0.551957
  0.468652    0.088392    0.570444
  0.497817    0.955779    0.608618
  0.445082    0.392302    0.978780
  0.568108    0.432978    0.922984
  0.449208    0.500448    0.888277
  0.469140    0.503802    0.113113
  0.592166    0.544478    0.057317
  0.473266    0.611948    0.022610
  0.598506    0.500098    0.573224
  0.488260    0.587268    0.585490
  0.572263    0.595301    0.472473
  0.496758    0.383227    0.489290
  0.386512    0.470397    0.501556
  0.470515    0.478430    0.388539
  0.250000    0.250000    0.250000
  0.250000    0.250000    0.750000
  0.250000    0.750000    0.250000
  0.250000    0.750000    0.750000
  0.750000    0.250000    0.250000
  0.750000    0.250000    0.750000
  0.750000    0.750000    0.250000
  0.750000    0.750000    0.750000
  0.250000    0.250000    0.000000
  0.250000    0.750000    0.500000
  0.250000    0.250000    0.500000
  0.250000    0.750000    0.000000
  0.750000    0.250000    0.000000
  0.750000    0.250000    0.500000
  0.750000    0.750000    0.000000
  0.750000    0.750000    0.500000
  0.000000    0.250000    0.250000
  0.000000    0.250000    0.750000
  0.000000    0.750000    0.250000
  0.000000    0.750000    0.750000
  0.500000    0.250000    0.250000
  0.500000    0.250000    0.750000
  0.500000    0.750000    0.250000
  0.500000    0.750000    0.750000
  0.250000    0.000000    0.250000
  0.250000    0.000000    0.750000
  0.250000    0.500000    0.250000
  0.250000    0.500000    0.750000
  0.750000    0.000000    0.250000
  0.750000    0.000000    0.750000
  0.750000    0.500000    0.250000
  0.750000    0.500000    0.750000
