#
# Keywords:
#
opti conp
#
# Options:
#
title
 La_{0.75}Sr_{0.25}Fe_{0.5}Al_{0.25}Mn_{0.25}O_3 perovskite 
end

@configuration_structure@

library woodley.lib

gmax 0.01
