opti conp
title
 Cantor subsystem alloy  17
end

cell
    4.9820      4.9820      4.9820     60.0000     60.0000     60.0000
frac
 Fe  core    0.0000000    0.0000000    0.0000000
 Cr  core    0.0000000    0.0000000    0.5000000
 Co  core    0.0000000    0.5000000    0.0000000
 Fe  core    0.0000000    0.5000000    0.5000000
 Cr  core    0.5000000    0.0000000    0.0000000
 Co  core    0.5000000    0.0000000    0.5000000
 Ni  core    0.5000000    0.5000000    0.0000000
 Ni  core    0.5000000    0.5000000    0.5000000

kim_model
EAM_Dynamo_FarkasCaro_2020_FeNiCrCoAl__MO_820335782779_000
