opti conp
title
 Ni/Mg substitutions in MgO rocksalt - configuration 02
end

cell
    8.4400      8.4400      8.4400     90.0000     90.0000     90.0000
frac
 Ni  core    0.0000000    0.0000000    0.0000000
 Ni  core    0.0000000    0.0000000    0.5000000
 Ni  core    0.0000000    0.5000000    0.0000000
 Mg  core    0.0000000    0.5000000    0.5000000
 Ni  core    0.5000000    0.0000000    0.0000000
 Mg  core    0.5000000    0.0000000    0.5000000
 Mg  core    0.5000000    0.5000000    0.0000000
 Mg  core    0.5000000    0.5000000    0.5000000
 Mg  core    0.0000000    0.2500000    0.2500000
 Mg  core    0.0000000    0.2500000    0.7500000
 Mg  core    0.0000000    0.7500000    0.2500000
 Mg  core    0.0000000    0.7500000    0.7500000
 Mg  core    0.5000000    0.2500000    0.2500000
 Mg  core    0.5000000    0.2500000    0.7500000
 Mg  core    0.5000000    0.7500000    0.2500000
 Mg  core    0.5000000    0.7500000    0.7500000
 Mg  core    0.2500000    0.0000000    0.2500000
 Mg  core    0.2500000    0.0000000    0.7500000
 Mg  core    0.2500000    0.5000000    0.2500000
 Mg  core    0.2500000    0.5000000    0.7500000
 Mg  core    0.7500000    0.0000000    0.2500000
 Mg  core    0.7500000    0.0000000    0.7500000
 Mg  core    0.7500000    0.5000000    0.2500000
 Mg  core    0.7500000    0.5000000    0.7500000
 Mg  core    0.2500000    0.2500000    0.0000000
 Mg  core    0.2500000    0.2500000    0.5000000
 Mg  core    0.2500000    0.7500000    0.0000000
 Mg  core    0.2500000    0.7500000    0.5000000
 Mg  core    0.7500000    0.2500000    0.0000000
 Mg  core    0.7500000    0.2500000    0.5000000
 Mg  core    0.7500000    0.7500000    0.0000000
 Mg  core    0.7500000    0.7500000    0.5000000
 O2  core    0.2500000    0.2500000    0.2500000
 O2  shel    0.2500000    0.2500000    0.2500000
 O2  core    0.2500000    0.2500000    0.7500000
 O2  shel    0.2500000    0.2500000    0.7500000
 O2  core    0.2500000    0.7500000    0.2500000
 O2  shel    0.2500000    0.7500000    0.2500000
 O2  core    0.2500000    0.7500000    0.7500000
 O2  shel    0.2500000    0.7500000    0.7500000
 O2  core    0.7500000    0.2500000    0.2500000
 O2  shel    0.7500000    0.2500000    0.2500000
 O2  core    0.7500000    0.2500000    0.7500000
 O2  shel    0.7500000    0.2500000    0.7500000
 O2  core    0.7500000    0.7500000    0.2500000
 O2  shel    0.7500000    0.7500000    0.2500000
 O2  core    0.7500000    0.7500000    0.7500000
 O2  shel    0.7500000    0.7500000    0.7500000
 O2  core    0.2500000    0.0000000    0.0000000
 O2  shel    0.2500000    0.0000000    0.0000000
 O2  core    0.2500000    0.0000000    0.5000000
 O2  shel    0.2500000    0.0000000    0.5000000
 O2  core    0.2500000    0.5000000    0.0000000
 O2  shel    0.2500000    0.5000000    0.0000000
 O2  core    0.2500000    0.5000000    0.5000000
 O2  shel    0.2500000    0.5000000    0.5000000
 O2  core    0.7500000    0.0000000    0.0000000
 O2  shel    0.7500000    0.0000000    0.0000000
 O2  core    0.7500000    0.0000000    0.5000000
 O2  shel    0.7500000    0.0000000    0.5000000
 O2  core    0.7500000    0.5000000    0.0000000
 O2  shel    0.7500000    0.5000000    0.0000000
 O2  core    0.7500000    0.5000000    0.5000000
 O2  shel    0.7500000    0.5000000    0.5000000
 O2  core    0.0000000    0.2500000    0.0000000
 O2  shel    0.0000000    0.2500000    0.0000000
 O2  core    0.0000000    0.2500000    0.5000000
 O2  shel    0.0000000    0.2500000    0.5000000
 O2  core    0.0000000    0.7500000    0.0000000
 O2  shel    0.0000000    0.7500000    0.0000000
 O2  core    0.0000000    0.7500000    0.5000000
 O2  shel    0.0000000    0.7500000    0.5000000
 O2  core    0.5000000    0.2500000    0.0000000
 O2  shel    0.5000000    0.2500000    0.0000000
 O2  core    0.5000000    0.2500000    0.5000000
 O2  shel    0.5000000    0.2500000    0.5000000
 O2  core    0.5000000    0.7500000    0.0000000
 O2  shel    0.5000000    0.7500000    0.0000000
 O2  core    0.5000000    0.7500000    0.5000000
 O2  shel    0.5000000    0.7500000    0.5000000
 O2  core    0.0000000    0.0000000    0.2500000
 O2  shel    0.0000000    0.0000000    0.2500000
 O2  core    0.0000000    0.0000000    0.7500000
 O2  shel    0.0000000    0.0000000    0.7500000
 O2  core    0.0000000    0.5000000    0.2500000
 O2  shel    0.0000000    0.5000000    0.2500000
 O2  core    0.0000000    0.5000000    0.7500000
 O2  shel    0.0000000    0.5000000    0.7500000
 O2  core    0.5000000    0.0000000    0.2500000
 O2  shel    0.5000000    0.0000000    0.2500000
 O2  core    0.5000000    0.0000000    0.7500000
 O2  shel    0.5000000    0.0000000    0.7500000
 O2  core    0.5000000    0.5000000    0.2500000
 O2  shel    0.5000000    0.5000000    0.2500000
 O2  core    0.5000000    0.5000000    0.7500000
 O2  shel    0.5000000    0.5000000    0.7500000


library catlow.lib
gmax 0.01
