 vasp           
 1.00000000
 12.620000    0.000000    0.000000
  0.000000   12.620000    0.000000
  0.000000    0.000000   12.620000
C N H Pb Br I
   8    8   48    8    2   22
 Direct
  0.941948    0.995037    0.022821
  0.023873    0.981651    0.554854
  0.004920    0.477504    0.058183
  0.999012    0.555489    0.528905
  0.444108    0.023594    0.015328
  0.508755    0.957340    0.455067
  0.484370    0.442438    0.981083
  0.467235    0.474654    0.453100
  0.051262    0.004383    0.979848
  0.978919    0.016202    0.451563
  0.995655    0.519865    0.948623
  0.000873    0.451002    0.474476
  0.549354    0.979166    0.986465
  0.492269    0.037670    0.539677
  0.513802    0.550829    0.016704
  0.528932    0.522381    0.541414
  0.888668    0.965942    0.961135
  0.914475    0.072474    0.049951
  0.941320    0.939735    0.089370
  0.052162    0.979921    0.896863
  0.077968    0.086452    0.985679
  0.104814    0.953714    0.025098
  0.108820    0.967369    0.546461
  0.985163    0.908690    0.580650
  0.011103    0.043173    0.614345
  0.041586    0.019045    0.391976
  0.917929    0.960366    0.426165
  0.943869    0.094849    0.459861
  0.053207    0.405681    0.057775
  0.926281    0.458749    0.089027
  0.042170    0.536546    0.109308
  0.039351    0.469037    0.893915
  0.912424    0.522105    0.925167
  0.028313    0.599903    0.945447
  0.016324    0.618393    0.472039
  0.058477    0.556784    0.591750
  0.920848    0.569077    0.563447
  0.019108    0.462118    0.390633
  0.061261    0.400510    0.510344
  0.923631    0.412802    0.482041
  0.420012    0.993674    0.092882
  0.385319    0.000229    0.956292
  0.448643    0.109953    0.018298
  0.577421    0.927227    0.049713
  0.542728    0.933781    0.913123
  0.606051    0.043505    0.975129
  0.484855    0.990086    0.378602
  0.461352    0.886946    0.471945
  0.592331    0.935187    0.451665
  0.460198    0.110230    0.505148
  0.436695    0.007090    0.598491
  0.567674    0.055330    0.578211
  0.444473    0.400370    0.045340
  0.555547    0.398788    0.958373
  0.431178    0.447464    0.913020
  0.488493    0.562482    0.098615
  0.599567    0.560901    0.011648
  0.475198    0.609576    0.966295
  0.514980    0.414452    0.413269
  0.445496    0.536027    0.396109
  0.395301    0.437953    0.484177
  0.607255    0.485833    0.545354
  0.537771    0.607409    0.528194
  0.487576    0.509335    0.616261
  0.250000    0.250000    0.250000
  0.250000    0.250000    0.750000
  0.250000    0.750000    0.250000
  0.250000    0.750000    0.750000
  0.750000    0.250000    0.250000
  0.750000    0.250000    0.750000
  0.750000    0.750000    0.250000
  0.750000    0.750000    0.750000
  0.250000    0.250000    0.000000
  0.000000    0.250000    0.250000
  0.250000    0.250000    0.500000
  0.250000    0.750000    0.000000
  0.250000    0.750000    0.500000
  0.750000    0.250000    0.000000
  0.750000    0.250000    0.500000
  0.750000    0.750000    0.000000
  0.750000    0.750000    0.500000
  0.000000    0.250000    0.750000
  0.000000    0.750000    0.250000
  0.000000    0.750000    0.750000
  0.500000    0.250000    0.250000
  0.500000    0.250000    0.750000
  0.500000    0.750000    0.250000
  0.500000    0.750000    0.750000
  0.250000    0.000000    0.250000
  0.250000    0.000000    0.750000
  0.250000    0.500000    0.250000
  0.250000    0.500000    0.750000
  0.750000    0.000000    0.250000
  0.750000    0.000000    0.750000
  0.750000    0.500000    0.250000
  0.750000    0.500000    0.750000
